W=8;
H=7;

MAX_TIME=30;
MAX_TRACKS=14;

TARGET=(3,8);

TRAINS=[(7,2,RIGHT),(3,2,RIGHT)];
DECOYS=[];

INIT_POS=[
(2,3,STRAIGHT_TD),
(2,6,STRAIGHT_TD),
(3,2,STRAIGHT_RL),
(3,3,CORNER_TL),
(3,6,CORNER_TR),
(3,7,STRAIGHT_RL),
(3,8,STRAIGHT_RL),
(5,5,STRAIGHT_RL),
(7,2,STRAIGHT_RL),
(7,5,STRAIGHT_RL),
(7,7,ROCK),
(6,5,ROCK),
(6,5,ROCK),
];
TUNNEL_PAIRS=[
  (1, 3, DOWN, 6, 8, LEFT),
  (1, 6, DOWN, 5, 2, RIGHT),
];

GATES=[];
ACTIVATIONS=[];

DSWITCHES=[];

STATIONS=[
  (5,5,2),
  (7,5,1),
];

SEMAPHORE_SUPPLY=0;
